c solution = True
p edge 402 401
e 2 1 1
e 3 2 1
e 8 2 1
e 13 2 1
e 18 2 1
e 23 2 1
e 28 2 1
e 33 2 1
e 38 2 1
e 43 2 1
e 48 2 1
e 53 2 1
e 58 2 1
e 63 2 1
e 68 2 1
e 73 2 1
e 78 2 1
e 83 2 1
e 88 2 1
e 93 2 1
e 98 2 1
e 103 2 1
e 108 2 1
e 113 2 1
e 118 2 1
e 123 2 1
e 128 2 1
e 133 2 1
e 138 2 1
e 143 2 1
e 148 2 1
e 153 2 1
e 158 2 1
e 163 2 1
e 168 2 1
e 173 2 1
e 178 2 1
e 183 2 1
e 188 2 1
e 193 2 1
e 198 2 1
e 203 2 1
e 208 2 1
e 213 2 1
e 218 2 1
e 223 2 1
e 228 2 1
e 233 2 1
e 238 2 1
e 243 2 1
e 248 2 1
e 253 2 1
e 258 2 1
e 263 2 1
e 268 2 1
e 273 2 1
e 278 2 1
e 283 2 1
e 288 2 1
e 293 2 1
e 298 2 1
e 303 2 1
e 308 2 1
e 313 2 1
e 318 2 1
e 323 2 1
e 328 2 1
e 333 2 1
e 338 2 1
e 343 2 1
e 348 2 1
e 353 2 1
e 358 2 1
e 363 2 1
e 368 2 1
e 373 2 1
e 378 2 1
e 383 2 1
e 388 2 1
e 393 2 1
e 398 2 1
e 399 398 1
e 402 398 1
e 400 399 1
e 401 400 1
e 394 393 1
e 397 393 1
e 395 394 1
e 396 395 1
e 389 388 1
e 392 388 1
e 390 389 1
e 391 390 1
e 384 383 1
e 387 383 1
e 385 384 1
e 386 385 1
e 379 378 1
e 382 378 1
e 380 379 1
e 381 380 1
e 374 373 1
e 377 373 1
e 375 374 1
e 376 375 1
e 369 368 1
e 372 368 1
e 370 369 1
e 371 370 1
e 364 363 1
e 367 363 1
e 365 364 1
e 366 365 1
e 359 358 1
e 362 358 1
e 360 359 1
e 361 360 1
e 354 353 1
e 357 353 1
e 355 354 1
e 356 355 1
e 349 348 1
e 352 348 1
e 350 349 1
e 351 350 1
e 344 343 1
e 347 343 1
e 345 344 1
e 346 345 1
e 339 338 1
e 342 338 1
e 340 339 1
e 341 340 1
e 334 333 1
e 337 333 1
e 335 334 1
e 336 335 1
e 329 328 1
e 332 328 1
e 330 329 1
e 331 330 1
e 324 323 1
e 327 323 1
e 325 324 1
e 326 325 1
e 319 318 1
e 322 318 1
e 320 319 1
e 321 320 1
e 314 313 1
e 317 313 1
e 315 314 1
e 316 315 1
e 309 308 1
e 312 308 1
e 310 309 1
e 311 310 1
e 304 303 1
e 307 303 1
e 305 304 1
e 306 305 1
e 299 298 1
e 302 298 1
e 300 299 1
e 301 300 1
e 294 293 1
e 297 293 1
e 295 294 1
e 296 295 1
e 289 288 1
e 292 288 1
e 290 289 1
e 291 290 1
e 284 283 1
e 287 283 1
e 285 284 1
e 286 285 1
e 279 278 1
e 282 278 1
e 280 279 1
e 281 280 1
e 274 273 1
e 277 273 1
e 275 274 1
e 276 275 1
e 269 268 1
e 272 268 1
e 270 269 1
e 271 270 1
e 264 263 1
e 267 263 1
e 265 264 1
e 266 265 1
e 259 258 1
e 262 258 1
e 260 259 1
e 261 260 1
e 254 253 1
e 257 253 1
e 255 254 1
e 256 255 1
e 249 248 1
e 252 248 1
e 250 249 1
e 251 250 1
e 244 243 1
e 247 243 1
e 245 244 1
e 246 245 1
e 239 238 1
e 242 238 1
e 240 239 1
e 241 240 1
e 234 233 1
e 237 233 1
e 235 234 1
e 236 235 1
e 229 228 1
e 232 228 1
e 230 229 1
e 231 230 1
e 224 223 1
e 227 223 1
e 225 224 1
e 226 225 1
e 219 218 1
e 222 218 1
e 220 219 1
e 221 220 1
e 214 213 1
e 217 213 1
e 215 214 1
e 216 215 1
e 209 208 1
e 212 208 1
e 210 209 1
e 211 210 1
e 204 203 1
e 207 203 1
e 205 204 1
e 206 205 1
e 199 198 1
e 202 198 1
e 200 199 1
e 201 200 1
e 194 193 1
e 197 193 1
e 195 194 1
e 196 195 1
e 189 188 1
e 192 188 1
e 190 189 1
e 191 190 1
e 184 183 1
e 187 183 1
e 185 184 1
e 186 185 1
e 179 178 1
e 182 178 1
e 180 179 1
e 181 180 1
e 174 173 1
e 177 173 1
e 175 174 1
e 176 175 1
e 169 168 1
e 172 168 1
e 170 169 1
e 171 170 1
e 164 163 1
e 167 163 1
e 165 164 1
e 166 165 1
e 159 158 1
e 162 158 1
e 160 159 1
e 161 160 1
e 154 153 1
e 157 153 1
e 155 154 1
e 156 155 1
e 149 148 1
e 152 148 1
e 150 149 1
e 151 150 1
e 144 143 1
e 147 143 1
e 145 144 1
e 146 145 1
e 139 138 1
e 142 138 1
e 140 139 1
e 141 140 1
e 134 133 1
e 137 133 1
e 135 134 1
e 136 135 1
e 129 128 1
e 132 128 1
e 130 129 1
e 131 130 1
e 124 123 1
e 127 123 1
e 125 124 1
e 126 125 1
e 119 118 1
e 122 118 1
e 120 119 1
e 121 120 1
e 114 113 1
e 117 113 1
e 115 114 1
e 116 115 1
e 109 108 1
e 112 108 1
e 110 109 1
e 111 110 1
e 104 103 1
e 107 103 1
e 105 104 1
e 106 105 1
e 99 98 1
e 102 98 1
e 100 99 1
e 101 100 1
e 94 93 1
e 97 93 1
e 95 94 1
e 96 95 1
e 89 88 1
e 92 88 1
e 90 89 1
e 91 90 1
e 84 83 1
e 87 83 1
e 85 84 1
e 86 85 1
e 79 78 1
e 82 78 1
e 80 79 1
e 81 80 1
e 74 73 1
e 77 73 1
e 75 74 1
e 76 75 1
e 69 68 1
e 72 68 1
e 70 69 1
e 71 70 1
e 64 63 1
e 67 63 1
e 65 64 1
e 66 65 1
e 59 58 1
e 62 58 1
e 60 59 1
e 61 60 1
e 54 53 1
e 57 53 1
e 55 54 1
e 56 55 1
e 49 48 1
e 52 48 1
e 50 49 1
e 51 50 1
e 44 43 1
e 47 43 1
e 45 44 1
e 46 45 1
e 39 38 1
e 42 38 1
e 40 39 1
e 41 40 1
e 34 33 1
e 37 33 1
e 35 34 1
e 36 35 1
e 29 28 1
e 32 28 1
e 30 29 1
e 31 30 1
e 24 23 1
e 27 23 1
e 25 24 1
e 26 25 1
e 19 18 1
e 22 18 1
e 20 19 1
e 21 20 1
e 14 13 1
e 17 13 1
e 15 14 1
e 16 15 1
e 9 8 1
e 12 8 1
e 10 9 1
e 11 10 1
e 4 3 1
e 7 3 1
e 5 4 1
e 6 5 1
